NAME : XML100_3271_25
DIMENSION : 101
NB_CLUSTERS : 4
CLUSTERING_ALG : KMeans
CLUSTERING_PARAMS : k(3)
CLUSTERS
1 0
2 1 4 5 7 8 9 10 12 14 29 34 35 37 38 41 45 48 52 54 57 60 65 71 76 82 86 89 90 92 94 95
3 2 3 17 19 23 26 31 32 33 39 40 42 46 47 49 51 53 56 58 59 61 62 63 64 66 72 74 75 77 78 79 81 84 87 93 98 100
4 6 11 13 15 16 18 20 21 22 24 25 27 28 30 36 43 44 50 55 67 68 69 70 73 80 83 85 88 91 96 97 99
EOF